Problem:    
Rows:       113
Columns:    45 (34 integer, 34 binary)
Non-zeros:  356
Status:     INTEGER OPTIMAL
Objective:  value = 22.680559 (MINimum)

   No.   Row name        Activity     Lower bound   Upper bound
------ ------------    ------------- ------------- -------------
     1 r.5                   22.6806             0               
     2 r.6                   22.6806      -989.148               
     3 r.7                   1022.68             0               
     4 r.8                  -977.319      -981.528               
     5 r.9                   1022.68             0               
     6 r.10                 -977.319      -994.399               
     7 r.11                  22.6806             0               
     8 r.12                  22.6806       -989.57               
     9 r.13                  1022.68             0               
    10 r.14                  -982.92      -994.095               
    11 r.15                  22.6806             0               
    12 r.16                  22.6806      -988.712               
    13 r.17                  1022.68             0               
    14 r.18                 -988.825      -996.226               
    15 r.19                  22.6806             0               
    16 r.20                  22.6806      -993.732               
    17 r.21                  1022.68             0               
    18 r.22                 -998.927      -998.927               
    19 r.23                  22.6806             0               
    20 r.24                 -997.812      -997.812               
    21 r.25                        1             1             = 
    22 r.26                        1             1             = 
    23 r.27                        1             1             = 
    24 r.28                        1             1             = 
    25 r.29                        1             1             = 
    26 r.30                     1001             2               
    27 r.31                    -1001         -1001               
    28 r.32                     2000      -994.399               
    29 r.33                     1001             2               
    30 r.34                    -1001         -1001               
    31 r.35                     2000       -989.57               
    32 r.36                     1001             2               
    33 r.37                    -1001         -1001               
    34 r.38                   1994.4      -994.095               
    35 r.39                     1001             2               
    36 r.40                    -1001         -1001               
    37 r.41                     2000      -988.712               
    38 r.42                     1001             2               
    39 r.43                    -1001         -1001               
    40 r.44                  1988.49      -996.226               
    41 r.45                     1001             2               
    42 r.46                    -1001         -1001               
    43 r.47                     2000      -993.732               
    44 r.48                  18.4723      -989.148               
    45 r.49                 -981.528      -981.528               
    46 r.50                  1023.46      -989.148               
    47 r.51                   23.464      -981.528               
    48 r.52                     1001             2               
    49 r.53                    -1001         -1001               
    50 r.54                     2000       10.8522               
    51 r.55                     1001             2               
    52 r.56                    -1001         -1001               
    53 r.57                     2000       18.4723               
    54 r.58                        2             2               
    55 r.59                       -2         -1001               
    56 r.60                  -5.6009      -994.095               
    57 r.61                     1000             2               
    58 r.62                    -1000         -1001               
    59 r.63                     2000      -988.712               
    60 r.64                        2             2               
    61 r.65                       -2         -1001               
    62 r.66                 -11.5057      -996.226               
    63 r.67                     1000             2               
    64 r.68                    -1000         -1001               
    65 r.69                     2000      -993.732               
    66 r.70                 -981.528      -994.399               
    67 r.71                  18.4723       -989.57               
    68 r.72                   23.464      -994.399               
    69 r.73                  1023.46       -989.57               
    70 r.74                     1001             2               
    71 r.75                    -1001         -1001               
    72 r.76                   2005.6       10.8522               
    73 r.77                     1001             2               
    74 r.78                    -1001         -1001               
    75 r.79                     2000       18.4723               
    76 r.80                        2             2               
    77 r.81                       -2         -1001               
    78 r.82                   5.6009        5.6009               
    79 r.83                     1000             2               
    80 r.84                    -1000         -1001               
    81 r.85                     2000         10.43               
    82 r.86                        2             2               
    83 r.87                       -2         -1001               
    84 r.88                  -5.9048      -996.226               
    85 r.89                     1000             2               
    86 r.90                    -1000         -1001               
    87 r.91                     2000      -993.732               
    88 r.92                 -987.129      -994.095               
    89 r.93                  18.4723      -988.712               
    90 r.94                  17.8631      -994.095               
    91 r.95                  1023.46      -988.712               
    92 r.96                     1001             2               
    93 r.97                    -1001         -1001               
    94 r.98                  2011.51       10.8522               
    95 r.99                     1001             2               
    96 r.100                   -1001         -1001               
    97 r.101                    2000       18.4723               
    98 r.102                       2             2               
    99 r.103                      -2         -1001               
   100 r.104                 11.5057        5.6009               
   101 r.105                    1000             2               
   102 r.106                   -1000         -1001               
   103 r.107                    2000         10.43               
   104 r.108                       2             2               
   105 r.109                      -2         -1001               
   106 r.110                  5.9048        5.9048               
   107 r.111                    1000             2               
   108 r.112                   -1000         -1001               
   109 r.113                    2000       11.2877               
   110 r.114                -993.033      -996.226               
   111 r.115                 18.4723      -993.732               
   112 r.116                 11.9583      -996.226               
   113 r.117                 1023.46      -993.732               

   No. Column name       Activity     Lower bound   Upper bound
------ ------------    ------------- ------------- -------------
     1 tt                    22.6806             0               
     2 s_1_1        *              0             0             1 
     3 t_1_1                       0             0               
     4 s_2_1        *              1             0             1 
     5 t_2_1                       0             0               
     6 s_1_2        *              1             0             1 
     7 t_1_2                       0             0               
     8 s_2_2        *              0             0             1 
     9 t_2_2                       0             0               
    10 s_1_3        *              1             0             1 
    11 t_1_3                  5.6009             0               
    12 s_2_3        *              0             0             1 
    13 t_2_3                       0             0               
    14 s_1_4        *              1             0             1 
    15 t_1_4                 11.5057             0               
    16 s_2_4        *              0             0             1 
    17 t_2_4                       0             0               
    18 s_1_5        *              1             0             1 
    19 t_1_5                 18.4723             0               
    20 s_2_5        *              0             0             1 
    21 t_2_5                 1023.46             0               
    22 r_1_1_2      *              1             0             1 
    23 u_1_1_2      *              0             0             1 
    24 r_2_1_2      *              1             0             1 
    25 u_2_1_2      *              0             0             1 
    26 r_1_1_3      *              1             0             1 
    27 u_1_1_3      *              0             0             1 
    28 r_2_1_3      *              1             0             1 
    29 u_2_1_3      *              0             0             1 
    30 r_1_1_4      *              1             0             1 
    31 u_1_1_4      *              0             0             1 
    32 r_2_1_4      *              1             0             1 
    33 u_2_1_4      *              0             0             1 
    34 r_1_2_3      *              0             0             1 
    35 u_1_2_3      *              0             0             1 
    36 r_2_2_3      *              1             0             1 
    37 u_2_2_3      *              0             0             1 
    38 r_1_2_4      *              0             0             1 
    39 u_1_2_4      *              0             0             1 
    40 r_2_2_4      *              1             0             1 
    41 u_2_2_4      *              0             0             1 
    42 r_1_3_4      *              0             0             1 
    43 u_1_3_4      *              0             0             1 
    44 r_2_3_4      *              1             0             1 
    45 u_2_3_4      *              0             0             1 

Integer feasibility conditions:

KKT.PE: max.abs.err = 0.00e+00 on row 0
        max.rel.err = 0.00e+00 on row 0
        High quality

KKT.PB: max.abs.err = 8.97e-14 on row 78
        max.rel.err = 1.36e-14 on row 78
        High quality

End of output
